p cnf 144 384
-1 2 51 0
1 -2 51 0
1 2 -51 0
-1 -2 -51 0
-3 51 52 0
3 -51 52 0
3 51 -52 0
-3 -51 -52 0
-4 52 53 0
4 -52 53 0
4 52 -53 0
-4 -52 -53 0
-5 53 54 0
5 -53 54 0
5 53 -54 0
-5 -53 -54 0
-6 54 55 0
6 -54 55 0
6 54 -55 0
-6 -54 -55 0
-7 55 56 0
7 -55 56 0
7 55 -56 0
-7 -55 -56 0
-8 56 57 0
8 -56 57 0
8 56 -57 0
-8 -56 -57 0
-9 57 58 0
9 -57 58 0
9 57 -58 0
-9 -57 -58 0
-10 58 59 0
10 -58 59 0
10 58 -59 0
-10 -58 -59 0
-11 59 60 0
11 -59 60 0
11 59 -60 0
-11 -59 -60 0
-12 60 61 0
12 -60 61 0
12 60 -61 0
-12 -60 -61 0
-13 61 62 0
13 -61 62 0
13 61 -62 0
-13 -61 -62 0
-14 62 63 0
14 -62 63 0
14 62 -63 0
-14 -62 -63 0
-15 63 64 0
15 -63 64 0
15 63 -64 0
-15 -63 -64 0
-16 64 65 0
16 -64 65 0
16 64 -65 0
-16 -64 -65 0
-17 65 66 0
17 -65 66 0
17 65 -66 0
-17 -65 -66 0
-18 66 67 0
18 -66 67 0
18 66 -67 0
-18 -66 -67 0
-19 67 68 0
19 -67 68 0
19 67 -68 0
-19 -67 -68 0
-20 68 69 0
20 -68 69 0
20 68 -69 0
-20 -68 -69 0
-21 69 70 0
21 -69 70 0
21 69 -70 0
-21 -69 -70 0
-22 70 71 0
22 -70 71 0
22 70 -71 0
-22 -70 -71 0
-23 71 72 0
23 -71 72 0
23 71 -72 0
-23 -71 -72 0
-24 72 73 0
24 -72 73 0
24 72 -73 0
-24 -72 -73 0
-25 73 74 0
25 -73 74 0
25 73 -74 0
-25 -73 -74 0
-26 74 75 0
26 -74 75 0
26 74 -75 0
-26 -74 -75 0
-27 75 76 0
27 -75 76 0
27 75 -76 0
-27 -75 -76 0
-28 76 77 0
28 -76 77 0
28 76 -77 0
-28 -76 -77 0
-29 77 78 0
29 -77 78 0
29 77 -78 0
-29 -77 -78 0
-30 78 79 0
30 -78 79 0
30 78 -79 0
-30 -78 -79 0
-31 79 80 0
31 -79 80 0
31 79 -80 0
-31 -79 -80 0
-32 80 81 0
32 -80 81 0
32 80 -81 0
-32 -80 -81 0
-33 81 82 0
33 -81 82 0
33 81 -82 0
-33 -81 -82 0
-34 82 83 0
34 -82 83 0
34 82 -83 0
-34 -82 -83 0
-35 83 84 0
35 -83 84 0
35 83 -84 0
-35 -83 -84 0
-36 84 85 0
36 -84 85 0
36 84 -85 0
-36 -84 -85 0
-37 85 86 0
37 -85 86 0
37 85 -86 0
-37 -85 -86 0
-38 86 87 0
38 -86 87 0
38 86 -87 0
-38 -86 -87 0
-39 87 88 0
39 -87 88 0
39 87 -88 0
-39 -87 -88 0
-40 88 89 0
40 -88 89 0
40 88 -89 0
-40 -88 -89 0
-41 89 90 0
41 -89 90 0
41 89 -90 0
-41 -89 -90 0
-42 90 91 0
42 -90 91 0
42 90 -91 0
-42 -90 -91 0
-43 91 92 0
43 -91 92 0
43 91 -92 0
-43 -91 -92 0
-44 92 93 0
44 -92 93 0
44 92 -93 0
-44 -92 -93 0
-45 93 94 0
45 -93 94 0
45 93 -94 0
-45 -93 -94 0
-46 94 95 0
46 -94 95 0
46 94 -95 0
-46 -94 -95 0
-47 95 96 0
47 -95 96 0
47 95 -96 0
-47 -95 -96 0
-48 96 97 0
48 -96 97 0
48 96 -97 0
-48 -96 -97 0
-49 50 -97 0
49 -50 -97 0
49 50 97 0
-49 -50 97 0
-43 24 98 0
43 -24 98 0
43 24 -98 0
-43 -24 -98 0
-7 98 99 0
7 -98 99 0
7 98 -99 0
-7 -98 -99 0
-30 99 100 0
30 -99 100 0
30 99 -100 0
-30 -99 -100 0
-36 100 101 0
36 -100 101 0
36 100 -101 0
-36 -100 -101 0
-26 101 102 0
26 -101 102 0
26 101 -102 0
-26 -101 -102 0
-14 102 103 0
14 -102 103 0
14 102 -103 0
-14 -102 -103 0
-10 103 104 0
10 -103 104 0
10 103 -104 0
-10 -103 -104 0
-38 104 105 0
38 -104 105 0
38 104 -105 0
-38 -104 -105 0
-45 105 106 0
45 -105 106 0
45 105 -106 0
-45 -105 -106 0
-5 106 107 0
5 -106 107 0
5 106 -107 0
-5 -106 -107 0
-15 107 108 0
15 -107 108 0
15 107 -108 0
-15 -107 -108 0
-48 108 109 0
48 -108 109 0
48 108 -109 0
-48 -108 -109 0
-32 109 110 0
32 -109 110 0
32 109 -110 0
-32 -109 -110 0
-39 110 111 0
39 -110 111 0
39 110 -111 0
-39 -110 -111 0
-11 111 112 0
11 -111 112 0
11 111 -112 0
-11 -111 -112 0
-20 112 113 0
20 -112 113 0
20 112 -113 0
-20 -112 -113 0
-40 113 114 0
40 -113 114 0
40 113 -114 0
-40 -113 -114 0
-25 114 115 0
25 -114 115 0
25 114 -115 0
-25 -114 -115 0
-37 115 116 0
37 -115 116 0
37 115 -116 0
-37 -115 -116 0
-3 116 117 0
3 -116 117 0
3 116 -117 0
-3 -116 -117 0
-49 117 118 0
49 -117 118 0
49 117 -118 0
-49 -117 -118 0
-31 118 119 0
31 -118 119 0
31 118 -119 0
-31 -118 -119 0
12 119 120 0
-12 -119 120 0
-12 119 -120 0
12 -119 -120 0
-23 120 121 0
23 -120 121 0
23 120 -121 0
-23 -120 -121 0
-4 121 122 0
4 -121 122 0
4 121 -122 0
-4 -121 -122 0
-44 122 123 0
44 -122 123 0
44 122 -123 0
-44 -122 -123 0
-22 123 124 0
22 -123 124 0
22 123 -124 0
-22 -123 -124 0
-46 124 125 0
46 -124 125 0
46 124 -125 0
-46 -124 -125 0
-41 125 126 0
41 -125 126 0
41 125 -126 0
-41 -125 -126 0
-35 126 127 0
35 -126 127 0
35 126 -127 0
-35 -126 -127 0
-19 127 128 0
19 -127 128 0
19 127 -128 0
-19 -127 -128 0
-9 128 129 0
9 -128 129 0
9 128 -129 0
-9 -128 -129 0
-2 129 130 0
2 -129 130 0
2 129 -130 0
-2 -129 -130 0
-27 130 131 0
27 -130 131 0
27 130 -131 0
-27 -130 -131 0
-50 131 132 0
50 -131 132 0
50 131 -132 0
-50 -131 -132 0
-18 132 133 0
18 -132 133 0
18 132 -133 0
-18 -132 -133 0
-13 133 134 0
13 -133 134 0
13 133 -134 0
-13 -133 -134 0
-33 134 135 0
33 -134 135 0
33 134 -135 0
-33 -134 -135 0
-1 135 136 0
1 -135 136 0
1 135 -136 0
-1 -135 -136 0
-47 136 137 0
47 -136 137 0
47 136 -137 0
-47 -136 -137 0
-28 137 138 0
28 -137 138 0
28 137 -138 0
-28 -137 -138 0
-17 138 139 0
17 -138 139 0
17 138 -139 0
-17 -138 -139 0
-6 139 140 0
6 -139 140 0
6 139 -140 0
-6 -139 -140 0
-34 140 141 0
34 -140 141 0
34 140 -141 0
-34 -140 -141 0
-16 141 142 0
16 -141 142 0
16 141 -142 0
-16 -141 -142 0
-29 142 143 0
29 -142 143 0
29 142 -143 0
-29 -142 -143 0
-21 143 144 0
21 -143 144 0
21 143 -144 0
-21 -143 -144 0
-8 42 -144 0
8 -42 -144 0
8 42 144 0
-8 -42 144 0
